c "908980.clq"
p edge 80 304
e 1 5
e 1 6
e 1 7
e 1 8
e 1 9
e 1 12
e 1 19
e 1 50
e 1 54
e 1 61
e 1 69
e 1 70
e 2 5
e 2 22
e 2 31
e 2 52
e 3 5
e 3 6
e 3 8
e 3 9
e 3 10
e 3 11
e 3 14
e 3 18
e 3 21
e 3 26
e 3 33
e 3 43
e 3 47
e 3 58
e 3 66
e 4 5
e 4 6
e 4 7
e 4 11
e 4 20
e 4 51
e 4 56
e 4 62
e 4 68
e 5 6
e 5 7
e 5 8
e 5 10
e 5 11
e 5 13
e 5 16
e 5 17
e 5 19
e 5 21
e 5 22
e 5 24
e 5 26
e 5 28
e 5 29
e 5 30
e 5 35
e 5 37
e 5 42
e 5 46
e 5 48
e 5 50
e 5 54
e 5 55
e 5 57
e 5 64
e 5 65
e 5 77
e 5 79
e 6 7
e 6 15
e 6 21
e 6 24
e 6 25
e 6 27
e 6 28
e 6 31
e 6 36
e 6 39
e 6 40
e 6 42
e 6 44
e 7 8
e 7 9
e 7 13
e 7 15
e 7 16
e 7 20
e 7 26
e 7 27
e 7 31
e 7 34
e 7 37
e 7 44
e 7 45
e 7 47
e 7 56
e 7 61
e 7 66
e 7 75
e 7 79
e 7 80
e 8 9
e 8 10
e 8 12
e 8 15
e 8 19
e 8 22
e 8 23
e 8 35
e 8 40
e 8 41
e 8 72
e 9 10
e 9 13
e 9 14
e 9 16
e 9 17
e 9 27
e 9 29
e 9 30
e 9 31
e 9 38
e 9 51
e 9 52
e 9 57
e 9 64
e 10 11
e 10 12
e 10 14
e 10 18
e 10 19
e 10 23
e 10 29
e 10 32
e 10 35
e 10 36
e 10 37
e 10 41
e 10 46
e 10 60
e 10 66
e 10 68
e 10 80
e 11 12
e 11 14
e 11 15
e 11 17
e 11 21
e 11 23
e 11 25
e 11 38
e 11 41
e 11 44
e 11 47
e 11 49
e 11 50
e 11 51
e 11 59
e 11 68
e 11 79
e 12 13
e 12 17
e 12 20
e 12 22
e 12 23
e 12 24
e 12 25
e 12 28
e 12 40
e 12 46
e 12 48
e 12 49
e 12 55
e 12 57
e 12 59
e 12 60
e 12 65
e 12 71
e 12 73
e 12 77
e 13 16
e 13 76
e 14 25
e 14 32
e 14 45
e 14 53
e 14 59
e 15 18
e 15 42
e 16 28
e 16 40
e 16 41
e 17 18
e 17 27
e 17 32
e 17 51
e 17 56
e 17 62
e 17 67
e 18 33
e 18 34
e 18 72
e 19 20
e 19 45
e 19 53
e 20 24
e 20 30
e 20 43
e 20 44
e 20 57
e 20 60
e 20 67
e 20 70
e 20 72
e 20 73
e 20 78
e 21 42
e 21 49
e 21 53
e 21 56
e 21 78
e 22 26
e 22 33
e 22 39
e 22 43
e 22 69
e 23 38
e 23 76
e 24 32
e 24 38
e 24 49
e 25 29
e 25 36
e 25 71
e 25 75
e 26 34
e 26 36
e 26 58
e 26 76
e 27 30
e 27 33
e 27 39
e 27 45
e 27 54
e 27 70
e 28 78
e 29 48
e 29 52
e 29 55
e 29 63
e 30 46
e 30 74
e 31 59
e 32 35
e 33 34
e 33 39
e 33 63
e 35 54
e 35 64
e 35 74
e 36 37
e 36 43
e 38 60
e 40 47
e 40 52
e 40 61
e 40 80
e 41 61
e 41 79
e 43 53
e 43 67
e 43 70
e 44 48
e 44 58
e 45 65
e 46 62
e 47 63
e 47 68
e 47 72
e 47 75
e 47 78
e 48 50
e 48 55
e 48 58
e 49 64
e 49 65
e 49 71
e 50 74
e 51 62
e 51 63
e 51 67
e 52 74
e 54 76
e 57 69
e 59 69
e 61 71
e 61 77
e 64 66
e 65 73
e 65 80
e 69 73
e 73 75
e 73 77
